CMD:
./solvers/bin/cadical --plain --no-reduce -t 1600 ./data/cnfs//zipcpu-busdelay-p00/zipcpu-busdelay-p00.41.cnf

c --- [ banner ] -------------------------------------------------------------
c 
c CaDiCaL SAT Solver
c Copyright (c) 2016-2024
c A. Biere, M. Fleury, N. Froleyks, K. Fazekas, F. Pollitt, T. Faller
c JKU Linz, University of Freiburg, TU Wien
c 
c Version 2.1.3 5296d3d2a9bf48c154ab2acb5e44625776d821bf
c g++ (Gentoo 12.3.1_p20230526 p2) 12.3.1 20230526 -Wall -Wextra -O3 -DNDEBUG
c Sat Aug 9 07:26:21 PDT 2025 Linux cedar2.int.cedar.computecanada.ca 5.14.0-362.24.2.el9_3.x86_64 x86_64
c 
c --- [ limit ] --------------------------------------------------------------
c 
c setting time limit to 1600 seconds real time (due to '-t 1600')
c 
c --- [ parsing input ] ------------------------------------------------------
c 
c reading DIMACS file from './data/cnfs//zipcpu-busdelay-p00/zipcpu-busdelay-p00.41.cnf'
c opening file to read './data/cnfs//zipcpu-busdelay-p00/zipcpu-busdelay-p00.41.cnf'
c found 'p cnf 127658 372957' header
c parsed 372957 clauses in 0.05 seconds process time
c 
c --- [ options ] ------------------------------------------------------------
c 
c   --compact=false                (different from default 'true')
c   --decompose=false              (different from default 'true')
c   --deduplicate=false            (different from default 'true')
c   --elim=false                   (different from default 'true')
c   --probe=false                  (different from default 'true')
c   --reduce=false                 (different from default 'true')
c   --subsume=false                (different from default 'true')
c   --ternary=false                (different from default 'true')
c   --transred=false               (different from default 'true')
c   --vivify=false                 (different from default 'true')
c 
c --- [ solving ] ------------------------------------------------------------
c 
c time measured in process time since initialization
c 
c  seconds  reductions  redundant  irredundant
c         MB    restarts       trail       variables
c          level   conflicts       glue          remaining
c 
c *  0.06 60  0 0   0    0    0  0% 0 361700 120574 94%
c {  0.08 62  0 0   0    0    0  0% 0 361700 120574 94%
c i  0.09 62 476 0   0   34   31 19% 3 361700 120564 94%
c i  0.09 62 601 0   0   58   54 29% 3 361700 120554 94%
c i  0.09 62 664 0   0   95   89 32% 3 361700 120540 94%
c i  0.11 63 399 0  18  188  177 25% 3 361700 120519 94%
c i  0.13 63 230 0  52  375  348 20% 4 361700 120488 94%
c i  0.14 63 180 0  59  515  476 18% 4 361700 120467 94%
c i  0.16 63 136 0  71  799  729 18% 4 361700 120457 94%
c }  0.18 63 118 0 113 1001  911 17% 4 361700 120456 94%
c [  0.18 63  0 0 113 1001  911  0% 0 361700 120456 94%
c O  0.20 63 2714 0 113 1002  912 86% 2 361700 120456 94%
c i  0.26 63 2510 0 113 1963 1812 80% 9 361700 120455 94%
c ]  0.32 63 1743 0 114 3001 2774 57% 7 361700 120455 94%
c {  0.32 63 118 0 114 3001 2774 17% 4 361700 120455 94%
c F  0.32 63 118 0 115 3003 2776 17% 4 361700 120455 94%
c i  0.33 63 117 0 116 3008 2780 17% 4 361700 120452 94%
c i  0.33 63 117 0 117 3010 2781 17% 4 361700 120405 94%
c i  0.33 63 117 0 117 3011 2781 17% 4 361700 120355 94%
c i  0.33 63 114 0 123 3038 2804 17% 4 361700 120345 94%
c 
c  seconds   reductions  redundant  irredundant
c         MB     restarts       trail       variables
c           level   conflicts       glue          remaining
c 
c i  0.35 63 104 0 155 3221 2979 17% 4 361700 120337 94%
c i  0.35 63 104 0 155 3222 2979 17% 4 361700 120329 94%
c i  0.35 63 104 0 155 3224 2980 17% 4 361700 120321 94%
c i  0.35 63 103 0 155 3265 3019 17% 4 361700 120320 94%
c i  0.35 63 103 0 155 3275 3028 17% 4 361700 120319 94%
c i  0.36 64 100 0 163 3364 3106 17% 4 361700 120308 94%
c i  0.36 64 99 0 163 3367 3108 17% 4 361700 120297 94%
c i  0.38 64 91 0 186 3600 3302 16% 5 361700 120295 94%
c i  0.47 64 76 0 312 4513 4158 16% 5 361700 120293 94%
c i  0.53 64 70 0 393 5035 4623 16% 5 361700 120292 94%
c #  0.61 64 63 0 480 6004 5503 15% 5 361700 120292 94%
c i  0.69 64 60 0 573 6575 6013 15% 5 361700 120291 94%
c i  0.73 64 60 0 622 6781 6205 15% 5 361700 120290 94%
c }  0.77 64 59 0 671 7002 6418 15% 5 361700 120290 94%
c [  0.77 64 1743 0 671 7002 6418 57% 7 361700 120290 94%
c I  0.95 65 698 0 673 10005 9100 29% 10 361700 120290 94%
c i  0.97 65 685 0 673 10101 9175 28% 10 361700 120288 94%
c i  0.98 65 668 0 674 10236 9290 28% 10 361700 120280 94%
c ]  1.28 66 380 0 676 15003 13698 23% 12 361700 120270 94%
c {  1.28 66 59 0 676 15003 13698 15% 5 361700 120270 94%
c 
c  seconds  reductions    redundant  irredundant
c         MB    restarts         trail       variables
c          level    conflicts        glue          remaining
c 
c B  1.29 66 59 0 678 15007 13702 15% 5 361700 120270 94%
c i  1.29 66 59 0 680 15014 13708 15% 5 361700 120267 94%
c i  1.29 66 59 0 680 15016 13709 15% 5 361700 120217 94%
c i  1.29 66 59 0 681 15017 13709 15% 5 361700 120204 94%
... skipped 15 lines ...
c i  4.12 69 289 0 3324 34811 30409 22% 12 345466 119903 94%
c 
c  seconds   reductions     redundant   irredundant
c         MB     restarts          trail        variables
c           level     conflicts        glue           remaining
c 
c B  4.20 69 268 0 3325 36015 31520 21% 12 345466 119903 94%
c W  5.01 87 175 0 3329 45016 38053 19% 13 345008 119903 94%
c O  5.85 87 131 0 3331 55017 47392 17% 14 345008 119903 94%
c i  6.06 87 125 0 3333 57280 49490 18% 14 345008 119902 94%
c ]  6.59 87 114 0 3337 63005 54845 17% 14 345008 119902 94%
c {  6.60 87 40 0 3337 63005 54845 14% 7 345008 119902 94%
c i  6.95 87 39 0 3653 64916 56518 13% 7 345008 119901 94%
c i  7.15 87 38 0 3818 65674 57157 13% 7 345008 119850 94%
c B  7.23 87 38 0 3862 66018 57480 13% 7 345008 119850 94%
c i  8.33 87 37 0 4780 70840 61973 13% 8 345008 119848 94%
c W  9.99 91 35 0 5982 78021 66458 13% 8 344772 119848 94%
c i 12.01 91 32 0 7301 88954 76238 13% 8 344772 119798 94%
c i 12.28 91 32 0 7406 90504 77707 13% 8 344772 119797 94%
c # 12.41 91 32 0 7488 91022 78197 13% 8 344772 119797 94%
c i 13.42 91 32 0 8105 94903 81828 13% 8 344772 119795 94%
c i 14.20 91 31 0 8524 98522 85206 13% 8 344772 119794 94%
c B 15.83 91 30 0 9487 105023 91277 13% 9 344772 119794 94%
c i 16.06 91 30 0 9553 106368 92553 12% 8 344772 119792 94%
c i 16.75 91 29 0 9787 111511 96872 12% 8 344772 119744 94%
c W 18.73 95 28 0 10750 120025 99247 12% 9 344320 119744 94%
c 
c  seconds  reductions       redundant   irredundant
c         MB     restarts            trail       variables
c          level      conflicts          glue          remaining
c 
c } 19.92 95 27 0 11227 127005 105653 12% 9 344320 119744 94%
c [ 19.92 95 114 0 11227 127005 105653 17% 14 344320 119744 94%
c B 20.86 95 93 0 11232 136028 113980 16% 13 344320 119744 94%
c i 22.81 95 70 0 11236 152357 127455 14% 12 344320 119731 94%
c W 22.99 97 69 0 11236 153030 113790 14% 12 344265 119731 94%
c i 23.54 97 65 0 11236 157321 117486 14% 12 344265 119730 94%
c i 24.17 97 60 0 11236 162029 120912 14% 12 344265 119329 93%
c i 24.33 97 59 0 11236 163132 121724 13% 12 344265 119177 93%
c i 24.34 97 59 0 11236 163220 121767 13% 12 344265 119163 93%
c i 24.34 97 59 0 11236 163295 121808 13% 12 344265 119122 93%
c i 24.34 97 59 0 11236 163296 121808 13% 12 344265 118570 93%
c i 24.34 97 59 0 11236 163297 121808 13% 12 344265 118555 93%
c i 24.34 97 59 0 11236 163298 121808 13% 12 344265 117961 92%
c ] 24.34 97 59 0 11236 163300 121808 13% 12 344265 117599 92%
c 0 24.34 97 59 0 11236 163300 121808 13% 12 344265 117599 92%
c 
c --- [ result ] -------------------------------------------------------------
c 
s UNSATISFIABLE
c 
c --- [ run-time profiling ] -------------------------------------------------
c 
c process time taken by individual solving procedures
c (percentage relative to process time for solving)
c 
c        24.29  100.00% search
c        16.16   66.53% unstable
c         7.65   31.49% stable
c         0.46    1.89% walk
c         0.05    0.23% parse
c         0.02    0.09% lucky
c         0.00    0.00% simplify
c   =================================
c        24.29   99.77% solve
c 
c last line shows process time for solving
c (percentage relative to total process time)
c 
c --- [ statistics ] ---------------------------------------------------------
c 
c chronological:             37822        23.16 %  of conflicts
c conflicts:                163300      6723.31    per second
c decisions:                559050     23016.93    per second
c fixed:                      9967         7.81 %  of all variables
c learned:                  159378        97.60 %  per conflict
c learned_lits:            7405115       100.00 %  learned literals
c minimized:                     0         0.00 %  learned literals
c shrunken:                1453093        19.62 %  learned literals
c minishrunken:            1763395        23.81 %  learned literals
c otfs:                        580         0.36 %  of conflict
c propagations:          277701002        11.43 M  per second
c rephased:                     17      9605.88    interval
c restarts:                  11236        14.53    interval
c stabilizing:                   4        47.94 %  of conflicts
c subsumed:                  12677         2.43 %  of all clauses
c strengthened:                568         0.11 %  of all clauses
c walked:                        5     32660.00    interval
c 
c seconds are measured in process time for solving
c 
c --- [ resources ] ----------------------------------------------------------
c 
c total process time since initialization:        24.34    seconds
c total real time since initialization:           24.56    seconds
c maximum resident set size of process:          120.61    MB
c 
c --- [ shutting down ] ------------------------------------------------------
c 
c exit 20
